p cnf 963 2473
51 -2 -1 0
-51 2 0
-51 1 0
52 -51 -3 0
-52 51 0
-52 3 0
53 -697 -698 0
-53 697 0
-53 698 0
54 -53 -699 0
-54 53 0
-54 699 0
55 -700 -701 0
-55 700 0
-55 701 0
56 -702 -697 0
-56 702 0
-56 697 0
57 -56 -6 0
-57 56 0
-57 6 0
58 -703 -55 0
-58 703 0
-58 55 0
59 -9 -704 0
-59 9 0
-59 704 0
60 -59 -705 0
-60 59 0
-60 705 0
61 -706 -58 0
-61 706 0
-61 58 0
62 -10 -9 0
-62 10 0
-62 9 0
63 -62 -6 0
-63 62 0
-63 6 0
64 -707 -61 0
-64 707 0
-64 61 0
65 -7 -698 0
-65 7 0
-65 698 0
66 -65 -708 0
-66 65 0
-66 708 0
67 -709 -64 0
-67 709 0
-67 64 0
68 -710 -11 0
-68 710 0
-68 11 0
69 -68 -705 0
-69 68 0
-69 705 0
70 -711 -67 0
-70 711 0
-70 67 0
71 -14 -712 0
-71 14 0
-71 712 0
72 -71 -6 0
-72 71 0
-72 6 0
73 -713 -70 0
-73 713 0
-73 70 0
74 -15 -708 0
-74 15 0
-74 708 0
75 -74 -714 0
-75 74 0
-75 714 0
76 -715 -73 0
-76 715 0
-76 73 0
77 -17 -716 0
-77 17 0
-77 716 0
78 -77 -18 0
-78 77 0
-78 18 0
79 -717 -76 0
-79 717 0
-79 76 0
80 -718 -19 0
-80 718 0
-80 19 0
81 -80 -719 0
-81 80 0
-81 719 0
82 -720 -79 0
-82 720 0
-82 79 0
83 -721 -722 0
-83 721 0
-83 722 0
84 -83 -716 0
-84 83 0
-84 716 0
85 -723 -82 0
-85 723 0
-85 82 0
86 -25 -724 0
-86 25 0
-86 724 0
87 -86 -705 0
-87 86 0
-87 705 0
88 -725 -85 0
-88 725 0
-88 85 0
89 -26 -726 0
-89 26 0
-89 726 0
90 -89 -10 0
-90 89 0
-90 10 0
91 -727 -88 0
-91 727 0
-91 88 0
92 -728 -17 0
-92 728 0
-92 17 0
93 -92 -14 0
-93 92 0
-93 14 0
94 -729 -91 0
-94 729 0
-94 91 0
95 -721 -730 0
-95 721 0
-95 730 0
96 -95 -28 0
-96 95 0
-96 28 0
97 -731 -94 0
-97 731 0
-97 94 0
98 -5 -2 0
-98 5 0
-98 2 0
99 -98 -719 0
-99 98 0
-99 719 0
100 -732 -97 0
-100 732 0
-100 97 0
101 -733 -24 0
-101 733 0
-101 24 0
102 -101 -7 0
-102 101 0
-102 7 0
103 -734 -100 0
-103 734 0
-103 100 0
104 -30 -718 0
-104 30 0
-104 718 0
105 -104 -705 0
-105 104 0
-105 705 0
106 -735 -103 0
-106 735 0
-106 103 0
107 -736 -30 0
-107 736 0
-107 30 0
108 -107 -4 0
-108 107 0
-108 4 0
109 -737 -106 0
-109 737 0
-109 106 0
110 -724 -730 0
-110 724 0
-110 730 0
111 -110 -7 0
-111 110 0
-111 7 0
112 -738 -109 0
-112 738 0
-112 109 0
113 -32 -2 0
-113 32 0
-113 2 0
114 -113 -33 0
-114 113 0
-114 33 0
115 -739 -112 0
-115 739 0
-115 112 0
116 -34 -718 0
-116 34 0
-116 718 0
117 -116 -33 0
-117 116 0
-117 33 0
118 -740 -115 0
-118 740 0
-118 115 0
119 -35 -741 0
-119 35 0
-119 741 0
120 -119 -742 0
-120 119 0
-120 742 0
121 -743 -118 0
-121 743 0
-121 118 0
122 -744 -745 0
-122 744 0
-122 745 0
123 -122 -716 0
-123 122 0
-123 716 0
124 -746 -121 0
-124 746 0
-124 121 0
125 -31 -1 0
-125 31 0
-125 1 0
126 -125 -28 0
-126 125 0
-126 28 0
127 -747 -124 0
-127 747 0
-127 124 0
128 -716 -745 0
-128 716 0
-128 745 0
129 -128 -702 0
-129 128 0
-129 702 0
130 -748 -127 0
-130 748 0
-130 127 0
131 -37 -35 0
-131 37 0
-131 35 0
132 -131 -18 0
-132 131 0
-132 18 0
133 -749 -130 0
-133 749 0
-133 130 0
134 -37 -23 0
-134 37 0
-134 23 0
135 -134 -21 0
-135 134 0
-135 21 0
136 -750 -133 0
-136 750 0
-136 133 0
137 -31 -11 0
-137 31 0
-137 11 0
138 -137 -726 0
-138 137 0
-138 726 0
139 -751 -136 0
-139 751 0
-139 136 0
140 -31 -745 0
-140 31 0
-140 745 0
141 -140 -38 0
-141 140 0
-141 38 0
142 -752 -139 0
-142 752 0
-142 139 0
143 -23 -15 0
-143 23 0
-143 15 0
144 -143 -37 0
-144 143 0
-144 37 0
145 -753 -142 0
-145 753 0
-145 142 0
146 -754 -39 0
-146 754 0
-146 39 0
147 -146 -755 0
-147 146 0
-147 755 0
148 -756 -145 0
-148 756 0
-148 145 0
149 -22 -726 0
-149 22 0
-149 726 0
150 -149 -10 0
-150 149 0
-150 10 0
151 -757 -148 0
-151 757 0
-151 148 0
152 -31 -758 0
-152 31 0
-152 758 0
153 -152 -759 0
-153 152 0
-153 759 0
154 -760 -151 0
-154 760 0
-154 151 0
155 -27 -718 0
-155 27 0
-155 718 0
156 -155 -21 0
-156 155 0
-156 21 0
157 -761 -154 0
-157 761 0
-157 154 0
158 -41 -736 0
-158 41 0
-158 736 0
159 -158 -762 0
-159 158 0
-159 762 0
160 -763 -157 0
-160 763 0
-160 157 0
161 -43 -17 0
-161 43 0
-161 17 0
162 -161 -762 0
-162 161 0
-162 762 0
163 -764 -160 0
-163 764 0
-163 160 0
164 -11 -5 0
-164 11 0
-164 5 0
165 -164 -43 0
-165 164 0
-165 43 0
166 -765 -163 0
-166 765 0
-166 163 0
167 -34 -736 0
-167 34 0
-167 736 0
168 -167 -726 0
-168 167 0
-168 726 0
169 -766 -166 0
-169 766 0
-169 166 0
170 -736 -730 0
-170 736 0
-170 730 0
171 -170 -30 0
-171 170 0
-171 30 0
172 -767 -169 0
-172 767 0
-172 169 0
173 -768 -728 0
-173 768 0
-173 728 0
174 -173 -769 0
-174 173 0
-174 769 0
175 -770 -172 0
-175 770 0
-175 172 0
176 -31 -17 0
-176 31 0
-176 17 0
177 -176 -724 0
-177 176 0
-177 724 0
178 -771 -175 0
-178 771 0
-178 175 0
179 -772 -741 0
-179 772 0
-179 741 0
180 -179 -773 0
-180 179 0
-180 773 0
181 -774 -178 0
-181 774 0
-181 178 0
182 -15 -745 0
-182 15 0
-182 745 0
183 -182 -775 0
-183 182 0
-183 775 0
184 -776 -181 0
-184 776 0
-184 181 0
185 -37 -777 0
-185 37 0
-185 777 0
186 -185 -778 0
-186 185 0
-186 778 0
187 -779 -184 0
-187 779 0
-187 184 0
188 -780 -736 0
-188 780 0
-188 736 0
189 -188 -762 0
-189 188 0
-189 762 0
190 -781 -187 0
-190 781 0
-190 187 0
191 -772 -721 0
-191 772 0
-191 721 0
192 -191 -40 0
-192 191 0
-192 40 0
193 -782 -190 0
-193 782 0
-193 190 0
194 -712 -5 0
-194 712 0
-194 5 0
195 -194 -775 0
-195 194 0
-195 775 0
196 -783 -193 0
-196 783 0
-196 193 0
197 -728 -20 0
-197 728 0
-197 20 0
198 -197 -5 0
-198 197 0
-198 5 0
199 -784 -196 0
-199 784 0
-199 196 0
200 -754 -23 0
-200 754 0
-200 23 0
201 -200 -47 0
-201 200 0
-201 47 0
202 -785 -199 0
-202 785 0
-202 199 0
203 -15 -712 0
-203 15 0
-203 712 0
204 -203 -14 0
-204 203 0
-204 14 0
205 -786 -202 0
-205 786 0
-205 202 0
206 -787 -35 0
-206 787 0
-206 35 0
207 -206 -9 0
-207 206 0
-207 9 0
208 -788 -205 0
-208 788 0
-208 205 0
209 -789 -37 0
-209 789 0
-209 37 0
210 -209 -790 0
-210 209 0
-210 790 0
211 -791 -208 0
-211 791 0
-211 208 0
212 -733 -792 0
-212 733 0
-212 792 0
213 -212 -21 0
-213 212 0
-213 21 0
214 -793 -211 0
-214 793 0
-214 211 0
215 -778 -794 0
-215 778 0
-215 794 0
216 -215 -16 0
-216 215 0
-216 16 0
217 -795 -214 0
-217 795 0
-217 214 0
218 -36 -718 0
-218 36 0
-218 718 0
219 -218 -5 0
-219 218 0
-219 5 0
220 -796 -217 0
-220 796 0
-220 217 0
221 -50 -34 0
-221 50 0
-221 34 0
222 -221 -46 0
-222 221 0
-222 46 0
223 -797 -220 0
-223 797 0
-223 220 0
224 -789 -733 0
-224 789 0
-224 733 0
225 -224 -3 0
-225 224 0
-225 3 0
226 -798 -223 0
-226 798 0
-226 223 0
227 -728 -15 0
-227 728 0
-227 15 0
228 -227 -742 0
-228 227 0
-228 742 0
229 -799 -226 0
-229 799 0
-229 226 0
230 -17 -800 0
-230 17 0
-230 800 0
231 -230 -37 0
-231 230 0
-231 37 0
232 -801 -229 0
-232 801 0
-232 229 0
233 -17 -704 0
-233 17 0
-233 704 0
234 -233 -789 0
-234 233 0
-234 789 0
235 -802 -232 0
-235 802 0
-235 232 0
236 -777 -698 0
-236 777 0
-236 698 0
237 -236 -716 0
-237 236 0
-237 716 0
238 -803 -235 0
-238 803 0
-238 235 0
239 -13 -7 0
-239 13 0
-239 7 0
240 -239 -2 0
-240 239 0
-240 2 0
241 -804 -238 0
-241 804 0
-241 238 0
242 -744 -30 0
-242 744 0
-242 30 0
243 -242 -7 0
-243 242 0
-243 7 0
244 -805 -241 0
-244 805 0
-244 241 0
245 -48 -730 0
-245 48 0
-245 730 0
246 -245 -789 0
-246 245 0
-246 789 0
247 -806 -244 0
-247 806 0
-247 244 0
248 -14 -704 0
-248 14 0
-248 704 0
249 -248 -49 0
-249 248 0
-249 49 0
250 -807 -247 0
-250 807 0
-250 247 0
251 -40 -745 0
-251 40 0
-251 745 0
252 -251 -775 0
-252 251 0
-252 775 0
253 -808 -250 0
-253 808 0
-253 250 0
254 -22 -698 0
-254 22 0
-254 698 0
255 -254 -25 0
-255 254 0
-255 25 0
256 -809 -253 0
-256 809 0
-256 253 0
257 -4 -1 0
-257 4 0
-257 1 0
258 -257 -789 0
-258 257 0
-258 789 0
259 -810 -256 0
-259 810 0
-259 256 0
260 -792 -704 0
-260 792 0
-260 704 0
261 -260 -36 0
-261 260 0
-261 36 0
262 -811 -259 0
-262 811 0
-262 259 0
263 -772 -745 0
-263 772 0
-263 745 0
264 -263 -20 0
-264 263 0
-264 20 0
265 -812 -262 0
-265 812 0
-265 262 0
266 -20 -14 0
-266 20 0
-266 14 0
267 -266 -755 0
-267 266 0
-267 755 0
268 -813 -265 0
-268 813 0
-268 265 0
269 -50 -11 0
-269 50 0
-269 11 0
270 -269 -16 0
-270 269 0
-270 16 0
271 -814 -268 0
-271 814 0
-271 268 0
272 -44 -24 0
-272 44 0
-272 24 0
273 -272 -762 0
-273 272 0
-273 762 0
274 -815 -271 0
-274 815 0
-274 271 0
275 -778 -721 0
-275 778 0
-275 721 0
276 -275 -18 0
-276 275 0
-276 18 0
277 -816 -274 0
-277 816 0
-277 274 0
278 -44 -702 0
-278 44 0
-278 702 0
279 -278 -16 0
-279 278 0
-279 16 0
280 -817 -277 0
-280 817 0
-280 277 0
281 -778 -43 0
-281 778 0
-281 43 0
282 -281 -714 0
-282 281 0
-282 714 0
283 -818 -280 0
-283 818 0
-283 280 0
284 -792 -724 0
-284 792 0
-284 724 0
285 -284 -16 0
-285 284 0
-285 16 0
286 -819 -283 0
-286 819 0
-286 283 0
287 -741 -13 0
-287 741 0
-287 13 0
288 -287 -31 0
-288 287 0
-288 31 0
289 -820 -286 0
-289 820 0
-289 286 0
290 -780 -24 0
-290 780 0
-290 24 0
291 -290 -754 0
-291 290 0
-291 754 0
292 -821 -289 0
-292 821 0
-292 289 0
293 -37 -30 0
-293 37 0
-293 30 0
294 -293 -726 0
-294 293 0
-294 726 0
295 -822 -292 0
-295 822 0
-295 292 0
296 -31 -23 0
-296 31 0
-296 23 0
297 -296 -44 0
-297 296 0
-297 44 0
298 -823 -295 0
-298 823 0
-298 295 0
299 -730 -745 0
-299 730 0
-299 745 0
300 -299 -37 0
-300 299 0
-300 37 0
301 -824 -298 0
-301 824 0
-301 298 0
302 -710 -8 0
-302 710 0
-302 8 0
303 -302 -792 0
-303 302 0
-303 792 0
304 -825 -301 0
-304 825 0
-304 301 0
305 -28 -704 0
-305 28 0
-305 704 0
306 -305 -47 0
-306 305 0
-306 47 0
307 -826 -304 0
-307 826 0
-307 304 0
308 -31 -30 0
-308 31 0
-308 30 0
309 -308 -44 0
-309 308 0
-309 44 0
310 -827 -307 0
-310 827 0
-310 307 0
311 -17 -8 0
-311 17 0
-311 8 0
312 -311 -19 0
-312 311 0
-312 19 0
313 -828 -310 0
-313 828 0
-313 310 0
314 -829 -7 0
-314 829 0
-314 7 0
315 -314 -759 0
-315 314 0
-315 759 0
316 -830 -313 0
-316 830 0
-316 313 0
317 -777 -12 0
-317 777 0
-317 12 0
318 -317 -25 0
-318 317 0
-318 25 0
319 -831 -316 0
-319 831 0
-319 316 0
320 -778 -35 0
-320 778 0
-320 35 0
321 -320 -18 0
-321 320 0
-321 18 0
322 -832 -319 0
-322 832 0
-322 319 0
323 -34 -30 0
-323 34 0
-323 30 0
324 -323 -3 0
-324 323 0
-324 3 0
325 -833 -322 0
-325 833 0
-325 322 0
326 -36 -25 0
-326 36 0
-326 25 0
327 -326 -42 0
-327 326 0
-327 42 0
328 -834 -325 0
-328 834 0
-328 325 0
329 -45 -772 0
-329 45 0
-329 772 0
330 -329 -10 0
-330 329 0
-330 10 0
331 -835 -328 0
-331 835 0
-331 328 0
332 -787 -745 0
-332 787 0
-332 745 0
333 -332 -9 0
-333 332 0
-333 9 0
334 -836 -331 0
-334 836 0
-334 331 0
335 -24 -777 0
-335 24 0
-335 777 0
336 -335 -1 0
-336 335 0
-336 1 0
337 -837 -334 0
-337 837 0
-337 334 0
338 -34 -721 0
-338 34 0
-338 721 0
339 -338 -789 0
-339 338 0
-339 789 0
340 -838 -337 0
-340 838 0
-340 337 0
341 -30 -27 0
-341 30 0
-341 27 0
342 -341 -745 0
-342 341 0
-342 745 0
343 -839 -340 0
-343 839 0
-343 340 0
344 -758 -19 0
-344 758 0
-344 19 0
345 -344 -43 0
-345 344 0
-345 43 0
346 -840 -343 0
-346 840 0
-346 343 0
347 -24 -1 0
-347 24 0
-347 1 0
348 -347 -699 0
-348 347 0
-348 699 0
349 -841 -346 0
-349 841 0
-349 346 0
350 -777 -710 0
-350 777 0
-350 710 0
351 -350 -699 0
-351 350 0
-351 699 0
352 -842 -349 0
-352 842 0
-352 349 0
353 -45 -11 0
-353 45 0
-353 11 0
354 -353 -10 0
-354 353 0
-354 10 0
355 -843 -352 0
-355 843 0
-355 352 0
356 -768 -11 0
-356 768 0
-356 11 0
357 -356 -42 0
-357 356 0
-357 42 0
358 -844 -355 0
-358 844 0
-358 355 0
359 -742 -710 0
-359 742 0
-359 710 0
360 -359 -33 0
-360 359 0
-360 33 0
361 -845 -358 0
-361 845 0
-361 358 0
362 -787 -15 0
-362 787 0
-362 15 0
363 -362 -846 0
-363 362 0
-363 846 0
364 -847 -361 0
-364 847 0
-364 361 0
365 -9 -697 0
-365 9 0
-365 697 0
366 -365 -775 0
-366 365 0
-366 775 0
367 -848 -364 0
-367 848 0
-367 364 0
368 -846 -721 0
-368 846 0
-368 721 0
369 -368 -26 0
-369 368 0
-369 26 0
370 -849 -367 0
-370 849 0
-370 367 0
371 -25 -800 0
-371 25 0
-371 800 0
372 -371 -699 0
-372 371 0
-372 699 0
373 -850 -370 0
-373 850 0
-373 370 0
374 -800 -710 0
-374 800 0
-374 710 0
375 -374 -7 0
-375 374 0
-375 7 0
376 -851 -373 0
-376 851 0
-376 373 0
377 -30 -4 0
-377 30 0
-377 4 0
378 -377 -5 0
-378 377 0
-378 5 0
379 -852 -376 0
-379 852 0
-379 376 0
380 -13 -698 0
-380 13 0
-380 698 0
381 -380 -40 0
-381 380 0
-381 40 0
382 -853 -379 0
-382 853 0
-382 379 0
383 -31 -846 0
-383 31 0
-383 846 0
384 -383 -714 0
-384 383 0
-384 714 0
385 -854 -382 0
-385 854 0
-385 382 0
386 -829 -4 0
-386 829 0
-386 4 0
387 -386 -697 0
-387 386 0
-387 697 0
388 -855 -385 0
-388 855 0
-388 385 0
389 -44 -34 0
-389 44 0
-389 34 0
390 -389 -794 0
-390 389 0
-390 794 0
391 -856 -388 0
-391 856 0
-391 388 0
392 -43 -15 0
-392 43 0
-392 15 0
393 -392 -16 0
-393 392 0
-393 16 0
394 -857 -391 0
-394 857 0
-394 391 0
395 -50 -758 0
-395 50 0
-395 758 0
396 -395 -699 0
-396 395 0
-396 699 0
397 -858 -394 0
-397 858 0
-397 394 0
398 -724 -718 0
-398 724 0
-398 718 0
399 -398 -43 0
-399 398 0
-399 43 0
400 -859 -397 0
-400 859 0
-400 397 0
401 -745 -860 0
-401 745 0
-401 860 0
402 -401 -46 0
-402 401 0
-402 46 0
403 -861 -400 0
-403 861 0
-403 400 0
404 -31 -19 0
-404 31 0
-404 19 0
405 -404 -716 0
-405 404 0
-405 716 0
406 -862 -403 0
-406 862 0
-406 403 0
407 -27 -710 0
-407 27 0
-407 710 0
408 -407 -775 0
-408 407 0
-408 775 0
409 -863 -406 0
-409 863 0
-409 406 0
410 -736 -10 0
-410 736 0
-410 10 0
411 -410 -43 0
-411 410 0
-411 43 0
412 -864 -409 0
-412 864 0
-412 409 0
413 -21 -710 0
-413 21 0
-413 710 0
414 -413 -762 0
-414 413 0
-414 762 0
415 -865 -412 0
-415 865 0
-415 412 0
416 -25 -4 0
-416 25 0
-416 4 0
417 -416 -829 0
-417 416 0
-417 829 0
418 -866 -415 0
-418 866 0
-418 415 0
419 -768 -19 0
-419 768 0
-419 19 0
420 -419 -794 0
-420 419 0
-420 794 0
421 -867 -418 0
-421 867 0
-421 418 0
422 -789 -2 0
-422 789 0
-422 2 0
423 -422 -3 0
-423 422 0
-423 3 0
424 -868 -421 0
-424 868 0
-424 421 0
425 -27 -758 0
-425 27 0
-425 758 0
426 -425 -762 0
-426 425 0
-426 762 0
427 -869 -424 0
-427 869 0
-427 424 0
428 -754 -8 0
-428 754 0
-428 8 0
429 -428 -28 0
-429 428 0
-429 28 0
430 -870 -427 0
-430 870 0
-430 427 0
431 -35 -11 0
-431 35 0
-431 11 0
432 -431 -790 0
-432 431 0
-432 790 0
433 -871 -430 0
-433 871 0
-433 430 0
434 -48 -39 0
-434 48 0
-434 39 0
435 -434 -758 0
-435 434 0
-435 758 0
436 -872 -433 0
-436 872 0
-436 433 0
437 -11 -702 0
-437 11 0
-437 702 0
438 -437 -32 0
-438 437 0
-438 32 0
439 -873 -436 0
-439 873 0
-439 436 0
440 -50 -744 0
-440 50 0
-440 744 0
441 -440 -19 0
-441 440 0
-441 19 0
442 -874 -439 0
-442 874 0
-442 439 0
443 -19 -2 0
-443 19 0
-443 2 0
444 -443 -33 0
-444 443 0
-444 33 0
445 -875 -442 0
-445 875 0
-445 442 0
446 -758 -705 0
-446 758 0
-446 705 0
447 -446 -46 0
-447 446 0
-447 46 0
448 -876 -445 0
-448 876 0
-448 445 0
449 -36 -698 0
-449 36 0
-449 698 0
450 -449 -46 0
-450 449 0
-450 46 0
451 -877 -448 0
-451 877 0
-451 448 0
452 -128 -794 0
-452 128 0
-452 794 0
453 -878 -451 0
-453 878 0
-453 451 0
454 -326 -769 0
-454 326 0
-454 769 0
455 -879 -453 0
-455 879 0
-455 453 0
456 -17 -11 0
-456 17 0
-456 11 0
457 -456 -23 0
-457 456 0
-457 23 0
458 -880 -455 0
-458 880 0
-458 455 0
459 -45 -14 0
-459 45 0
-459 14 0
460 -459 -829 0
-460 459 0
-460 829 0
461 -881 -458 0
-461 881 0
-461 458 0
462 -24 -716 0
-462 24 0
-462 716 0
463 -462 -38 0
-463 462 0
-463 38 0
464 -882 -461 0
-464 882 0
-464 461 0
465 -31 -722 0
-465 31 0
-465 722 0
466 -465 -778 0
-466 465 0
-466 778 0
467 -883 -464 0
-467 883 0
-467 464 0
468 -46 -29 0
-468 46 0
-468 29 0
469 -468 -18 0
-469 468 0
-469 18 0
470 -884 -467 0
-470 884 0
-470 467 0
471 -17 -710 0
-471 17 0
-471 710 0
472 -471 -47 0
-472 471 0
-472 47 0
473 -885 -470 0
-473 885 0
-473 470 0
474 -30 -860 0
-474 30 0
-474 860 0
475 -474 -44 0
-475 474 0
-475 44 0
476 -886 -473 0
-476 886 0
-476 473 0
477 -772 -846 0
-477 772 0
-477 846 0
478 -477 -702 0
-478 477 0
-478 702 0
479 -887 -476 0
-479 887 0
-479 476 0
480 -44 -736 0
-480 44 0
-480 736 0
481 -480 -716 0
-481 480 0
-481 716 0
482 -888 -479 0
-482 888 0
-482 479 0
483 -24 -800 0
-483 24 0
-483 800 0
484 -483 -773 0
-484 483 0
-484 773 0
485 -889 -482 0
-485 889 0
-485 482 0
486 -131 -794 0
-486 131 0
-486 794 0
487 -890 -485 0
-487 890 0
-487 485 0
488 -39 -721 0
-488 39 0
-488 721 0
489 -488 -699 0
-489 488 0
-489 699 0
490 -891 -487 0
-490 891 0
-490 487 0
491 -37 -800 0
-491 37 0
-491 800 0
492 -491 -2 0
-492 491 0
-492 2 0
493 -892 -490 0
-493 892 0
-493 490 0
494 -775 -719 0
-494 775 0
-494 719 0
495 -494 -755 0
-495 494 0
-495 755 0
496 -893 -493 0
-496 893 0
-496 493 0
497 -730 -4 0
-497 730 0
-497 4 0
498 -497 -758 0
-498 497 0
-498 758 0
499 -894 -496 0
-499 894 0
-499 496 0
500 -33 -22 0
-500 33 0
-500 22 0
501 -500 -38 0
-501 500 0
-501 38 0
502 -895 -499 0
-502 895 0
-502 499 0
503 -40 -35 0
-503 40 0
-503 35 0
504 -503 -896 0
-504 503 0
-504 896 0
505 -897 -502 0
-505 897 0
-505 502 0
506 -24 -12 0
-506 24 0
-506 12 0
507 -506 -800 0
-507 506 0
-507 800 0
508 -898 -505 0
-508 898 0
-508 505 0
509 -40 -36 0
-509 40 0
-509 36 0
510 -509 -699 0
-510 509 0
-510 699 0
511 -899 -508 0
-511 899 0
-511 508 0
512 -724 -22 0
-512 724 0
-512 22 0
513 -512 -15 0
-513 512 0
-513 15 0
514 -900 -511 0
-514 900 0
-514 511 0
515 -37 -728 0
-515 37 0
-515 728 0
516 -515 -33 0
-516 515 0
-516 33 0
517 -901 -514 0
-517 901 0
-517 514 0
518 -26 -9 0
-518 26 0
-518 9 0
519 -518 -769 0
-519 518 0
-519 769 0
520 -902 -517 0
-520 902 0
-520 517 0
521 -728 -714 0
-521 728 0
-521 714 0
522 -521 -18 0
-522 521 0
-522 18 0
523 -903 -520 0
-523 903 0
-523 520 0
524 -904 -800 0
-524 904 0
-524 800 0
525 -524 -742 0
-525 524 0
-525 742 0
526 -905 -523 0
-526 905 0
-526 523 0
527 -787 -754 0
-527 787 0
-527 754 0
528 -527 -45 0
-528 527 0
-528 45 0
529 -906 -526 0
-529 906 0
-529 526 0
530 -27 -15 0
-530 27 0
-530 15 0
531 -530 -829 0
-531 530 0
-531 829 0
532 -907 -529 0
-532 907 0
-532 529 0
533 -15 -716 0
-533 15 0
-533 716 0
534 -533 -775 0
-534 533 0
-534 775 0
535 -908 -532 0
-535 908 0
-535 532 0
536 -48 -27 0
-536 48 0
-536 27 0
537 -536 -14 0
-537 536 0
-537 14 0
538 -909 -535 0
-538 909 0
-538 535 0
539 -904 -730 0
-539 904 0
-539 730 0
540 -539 -29 0
-540 539 0
-540 29 0
541 -910 -538 0
-541 910 0
-541 538 0
542 -13 -704 0
-542 13 0
-542 704 0
543 -542 -29 0
-543 542 0
-543 29 0
544 -911 -541 0
-544 911 0
-544 541 0
545 -7 -2 0
-545 7 0
-545 2 0
546 -545 -719 0
-546 545 0
-546 719 0
547 -912 -544 0
-547 912 0
-547 544 0
548 -48 -705 0
-548 48 0
-548 705 0
549 -548 -742 0
-549 548 0
-549 742 0
550 -913 -547 0
-550 913 0
-550 547 0
551 -27 -721 0
-551 27 0
-551 721 0
552 -551 -6 0
-552 551 0
-552 6 0
553 -914 -550 0
-553 914 0
-553 550 0
554 -733 -714 0
-554 733 0
-554 714 0
555 -554 -18 0
-555 554 0
-555 18 0
556 -915 -553 0
-556 915 0
-556 553 0
557 -777 -15 0
-557 777 0
-557 15 0
558 -557 -755 0
-558 557 0
-558 755 0
559 -916 -556 0
-559 916 0
-559 556 0
560 -30 -17 0
-560 30 0
-560 17 0
561 -560 -8 0
-561 560 0
-561 8 0
562 -917 -559 0
-562 917 0
-562 559 0
563 -29 -28 0
-563 29 0
-563 28 0
564 -563 -7 0
-564 563 0
-564 7 0
565 -918 -562 0
-565 918 0
-565 562 0
566 -30 -745 0
-566 30 0
-566 745 0
567 -566 -789 0
-567 566 0
-567 789 0
568 -919 -565 0
-568 919 0
-568 565 0
569 -736 -24 0
-569 736 0
-569 24 0
570 -569 -759 0
-570 569 0
-570 759 0
571 -920 -568 0
-571 920 0
-571 568 0
572 -758 -730 0
-572 758 0
-572 730 0
573 -572 -46 0
-573 572 0
-573 46 0
574 -921 -571 0
-574 921 0
-574 571 0
575 -904 -777 0
-575 904 0
-575 777 0
576 -575 -792 0
-576 575 0
-576 792 0
577 -922 -574 0
-577 922 0
-577 574 0
578 -47 -17 0
-578 47 0
-578 17 0
579 -578 -755 0
-579 578 0
-579 755 0
580 -923 -577 0
-580 923 0
-580 577 0
581 -47 -699 0
-581 47 0
-581 699 0
582 -581 -759 0
-582 581 0
-582 759 0
583 -924 -580 0
-583 924 0
-583 580 0
584 -28 -14 0
-584 28 0
-584 14 0
585 -584 -769 0
-585 584 0
-585 769 0
586 -925 -583 0
-586 925 0
-586 583 0
587 -25 -718 0
-587 25 0
-587 718 0
588 -587 -37 0
-588 587 0
-588 37 0
589 -926 -586 0
-589 926 0
-589 586 0
590 -203 -44 0
-590 203 0
-590 44 0
591 -927 -589 0
-591 927 0
-591 589 0
592 -769 -10 0
-592 769 0
-592 10 0
593 -592 -46 0
-593 592 0
-593 46 0
594 -928 -591 0
-594 928 0
-594 591 0
595 -28 -745 0
-595 28 0
-595 745 0
596 -595 -755 0
-596 595 0
-596 755 0
597 -929 -594 0
-597 929 0
-597 594 0
598 -718 -704 0
-598 718 0
-598 704 0
599 -598 -742 0
-599 598 0
-599 742 0
600 -930 -597 0
-600 930 0
-600 597 0
601 -49 -27 0
-601 49 0
-601 27 0
602 -601 -47 0
-602 601 0
-602 47 0
603 -931 -600 0
-603 931 0
-603 600 0
604 -44 -745 0
-604 44 0
-604 745 0
605 -604 -789 0
-605 604 0
-605 789 0
606 -932 -603 0
-606 932 0
-606 603 0
607 -705 -702 0
-607 705 0
-607 702 0
608 -607 -47 0
-608 607 0
-608 47 0
609 -933 -606 0
-609 933 0
-609 606 0
610 -778 -7 0
-610 778 0
-610 7 0
611 -610 -18 0
-611 610 0
-611 18 0
612 -934 -609 0
-612 934 0
-612 609 0
613 -25 -20 0
-613 25 0
-613 20 0
614 -613 -14 0
-614 613 0
-614 14 0
615 -935 -612 0
-615 935 0
-615 612 0
616 -34 -726 0
-616 34 0
-616 726 0
617 -616 -16 0
-617 616 0
-617 16 0
618 -936 -615 0
-618 936 0
-618 615 0
619 -44 -21 0
-619 44 0
-619 21 0
620 -619 -18 0
-620 619 0
-620 18 0
621 -937 -618 0
-621 937 0
-621 618 0
622 -416 -33 0
-622 416 0
-622 33 0
623 -938 -621 0
-623 938 0
-623 621 0
624 -2 -860 0
-624 2 0
-624 860 0
625 -624 -896 0
-625 624 0
-625 896 0
626 -939 -623 0
-626 939 0
-626 623 0
627 -33 -10 0
-627 33 0
-627 10 0
628 -627 -699 0
-628 627 0
-628 699 0
629 -940 -626 0
-629 940 0
-629 626 0
630 -347 -775 0
-630 347 0
-630 775 0
631 -941 -629 0
-631 941 0
-631 629 0
632 -39 -6 0
-632 39 0
-632 6 0
633 -632 -42 0
-633 632 0
-633 42 0
634 -942 -631 0
-634 942 0
-634 631 0
635 -768 -846 0
-635 768 0
-635 846 0
636 -635 -697 0
-636 635 0
-636 697 0
637 -943 -634 0
-637 943 0
-637 634 0
638 -790 -31 0
-638 790 0
-638 31 0
639 -638 -42 0
-639 638 0
-639 42 0
640 -944 -637 0
-640 944 0
-640 637 0
641 -35 -20 0
-641 35 0
-641 20 0
642 -641 -742 0
-642 641 0
-642 742 0
643 -945 -640 0
-643 945 0
-643 640 0
644 -768 -742 0
-644 768 0
-644 742 0
645 -644 -755 0
-645 644 0
-645 755 0
646 -946 -643 0
-646 946 0
-646 643 0
647 -140 -721 0
-647 140 0
-647 721 0
648 -947 -646 0
-648 947 0
-648 646 0
649 -736 -712 0
-649 736 0
-649 712 0
650 -649 -41 0
-650 649 0
-650 41 0
651 -948 -648 0
-651 948 0
-651 648 0
652 -733 -1 0
-652 733 0
-652 1 0
653 -652 -846 0
-653 652 0
-653 846 0
654 -949 -651 0
-654 949 0
-654 651 0
655 -792 -1 0
-655 792 0
-655 1 0
656 -655 -705 0
-656 655 0
-656 705 0
657 -950 -654 0
-657 950 0
-657 654 0
658 -27 -698 0
-658 27 0
-658 698 0
659 -658 -37 0
-659 658 0
-659 37 0
660 -951 -657 0
-660 951 0
-660 657 0
661 -733 -712 0
-661 733 0
-661 712 0
662 -661 -790 0
-662 661 0
-662 790 0
663 -952 -660 0
-663 952 0
-663 660 0
664 -768 -29 0
-664 768 0
-664 29 0
665 -664 -12 0
-665 664 0
-665 12 0
666 -953 -663 0
-666 953 0
-666 663 0
667 -722 -699 0
-667 722 0
-667 699 0
668 -667 -18 0
-668 667 0
-668 18 0
669 -954 -666 0
-669 954 0
-669 666 0
670 -773 -754 0
-670 773 0
-670 754 0
671 -670 -3 0
-671 670 0
-671 3 0
672 -955 -669 0
-672 955 0
-672 669 0
673 -13 -4 0
-673 13 0
-673 4 0
674 -673 -773 0
-674 673 0
-674 773 0
675 -956 -672 0
-675 956 0
-675 672 0
676 -896 -4 0
-676 896 0
-676 4 0
677 -676 -762 0
-677 676 0
-677 762 0
678 -957 -675 0
-678 957 0
-678 675 0
679 -11 -1 0
-679 11 0
-679 1 0
680 -679 -38 0
-680 679 0
-680 38 0
681 -958 -678 0
-681 958 0
-681 678 0
682 -44 -704 0
-682 44 0
-682 704 0
683 -682 -790 0
-683 682 0
-683 790 0
684 -959 -681 0
-684 959 0
-684 681 0
685 -712 -710 0
-685 712 0
-685 710 0
686 -685 -762 0
-686 685 0
-686 762 0
687 -960 -684 0
-687 960 0
-687 684 0
688 -718 -9 0
-688 718 0
-688 9 0
689 -688 -42 0
-689 688 0
-689 42 0
690 -961 -687 0
-690 961 0
-690 687 0
691 -790 -28 0
-691 790 0
-691 28 0
692 -691 -16 0
-692 691 0
-692 16 0
693 -962 -690 0
-693 962 0
-693 690 0
694 -48 -754 0
-694 48 0
-694 754 0
695 -694 -789 0
-695 694 0
-695 789 0
696 -963 -693 0
-696 963 0
-696 693 0
-697 -5 0
697 5 0
-698 -4 0
698 4 0
-699 -6 0
699 6 0
-700 -54 0
700 54 0
-701 -52 0
701 52 0
-702 -7 0
702 7 0
-703 -57 0
703 57 0
-704 -8 0
704 8 0
-705 -10 0
705 10 0
-706 -60 0
706 60 0
-707 -63 0
707 63 0
-708 -3 0
708 3 0
-709 -66 0
709 66 0
-710 -12 0
710 12 0
-711 -69 0
711 69 0
-712 -13 0
712 13 0
-713 -72 0
713 72 0
-714 -16 0
714 16 0
-715 -75 0
715 75 0
-716 -14 0
716 14 0
-717 -78 0
717 78 0
-718 -20 0
718 20 0
-719 -21 0
719 21 0
-720 -81 0
720 81 0
-721 -23 0
721 23 0
-722 -22 0
722 22 0
-723 -84 0
723 84 0
-724 -24 0
724 24 0
-725 -87 0
725 87 0
-726 -2 0
726 2 0
-727 -90 0
727 90 0
-728 -27 0
728 27 0
-729 -93 0
729 93 0
-730 -17 0
730 17 0
-731 -96 0
731 96 0
-732 -99 0
732 99 0
-733 -29 0
733 29 0
-734 -102 0
734 102 0
-735 -105 0
735 105 0
-736 -31 0
736 31 0
-737 -108 0
737 108 0
-738 -111 0
738 111 0
-739 -114 0
739 114 0
-740 -117 0
740 117 0
-741 -34 0
741 34 0
-742 -36 0
742 36 0
-743 -120 0
743 120 0
-744 -35 0
744 35 0
-745 -11 0
745 11 0
-746 -123 0
746 123 0
-747 -126 0
747 126 0
-748 -129 0
748 129 0
-749 -132 0
749 132 0
-750 -135 0
750 135 0
-751 -138 0
751 138 0
-752 -141 0
752 141 0
-753 -144 0
753 144 0
-754 -40 0
754 40 0
-755 -38 0
755 38 0
-756 -147 0
756 147 0
-757 -150 0
757 150 0
-758 -26 0
758 26 0
-759 -18 0
759 18 0
-760 -153 0
760 153 0
-761 -156 0
761 156 0
-762 -42 0
762 42 0
-763 -159 0
763 159 0
-764 -162 0
764 162 0
-765 -165 0
765 165 0
-766 -168 0
766 168 0
-767 -171 0
767 171 0
-768 -39 0
768 39 0
-769 -32 0
769 32 0
-770 -174 0
770 174 0
-771 -177 0
771 177 0
-772 -44 0
772 44 0
-773 -45 0
773 45 0
-774 -180 0
774 180 0
-775 -46 0
775 46 0
-776 -183 0
776 183 0
-777 -19 0
777 19 0
-778 -47 0
778 47 0
-779 -186 0
779 186 0
-780 -48 0
780 48 0
-781 -189 0
781 189 0
-782 -192 0
782 192 0
-783 -195 0
783 195 0
-784 -198 0
784 198 0
-785 -201 0
785 201 0
-786 -204 0
786 204 0
-787 -41 0
787 41 0
-788 -207 0
788 207 0
-789 -49 0
789 49 0
-790 -43 0
790 43 0
-791 -210 0
791 210 0
-792 -28 0
792 28 0
-793 -213 0
793 213 0
-794 -9 0
794 9 0
-795 -216 0
795 216 0
-796 -219 0
796 219 0
-797 -222 0
797 222 0
-798 -225 0
798 225 0
-799 -228 0
799 228 0
-800 -15 0
800 15 0
-801 -231 0
801 231 0
-802 -234 0
802 234 0
-803 -237 0
803 237 0
-804 -240 0
804 240 0
-805 -243 0
805 243 0
-806 -246 0
806 246 0
-807 -249 0
807 249 0
-808 -252 0
808 252 0
-809 -255 0
809 255 0
-810 -258 0
810 258 0
-811 -261 0
811 261 0
-812 -264 0
812 264 0
-813 -267 0
813 267 0
-814 -270 0
814 270 0
-815 -273 0
815 273 0
-816 -276 0
816 276 0
-817 -279 0
817 279 0
-818 -282 0
818 282 0
-819 -285 0
819 285 0
-820 -288 0
820 288 0
-821 -291 0
821 291 0
-822 -294 0
822 294 0
-823 -297 0
823 297 0
-824 -300 0
824 300 0
-825 -303 0
825 303 0
-826 -306 0
826 306 0
-827 -309 0
827 309 0
-828 -312 0
828 312 0
-829 -37 0
829 37 0
-830 -315 0
830 315 0
-831 -318 0
831 318 0
-832 -321 0
832 321 0
-833 -324 0
833 324 0
-834 -327 0
834 327 0
-835 -330 0
835 330 0
-836 -333 0
836 333 0
-837 -336 0
837 336 0
-838 -339 0
838 339 0
-839 -342 0
839 342 0
-840 -345 0
840 345 0
-841 -348 0
841 348 0
-842 -351 0
842 351 0
-843 -354 0
843 354 0
-844 -357 0
844 357 0
-845 -360 0
845 360 0
-846 -25 0
846 25 0
-847 -363 0
847 363 0
-848 -366 0
848 366 0
-849 -369 0
849 369 0
-850 -372 0
850 372 0
-851 -375 0
851 375 0
-852 -378 0
852 378 0
-853 -381 0
853 381 0
-854 -384 0
854 384 0
-855 -387 0
855 387 0
-856 -390 0
856 390 0
-857 -393 0
857 393 0
-858 -396 0
858 396 0
-859 -399 0
859 399 0
-860 -1 0
860 1 0
-861 -402 0
861 402 0
-862 -405 0
862 405 0
-863 -408 0
863 408 0
-864 -411 0
864 411 0
-865 -414 0
865 414 0
-866 -417 0
866 417 0
-867 -420 0
867 420 0
-868 -423 0
868 423 0
-869 -426 0
869 426 0
-870 -429 0
870 429 0
-871 -432 0
871 432 0
-872 -435 0
872 435 0
-873 -438 0
873 438 0
-874 -441 0
874 441 0
-875 -444 0
875 444 0
-876 -447 0
876 447 0
-877 -450 0
877 450 0
-878 -452 0
878 452 0
-879 -454 0
879 454 0
-880 -457 0
880 457 0
-881 -460 0
881 460 0
-882 -463 0
882 463 0
-883 -466 0
883 466 0
-884 -469 0
884 469 0
-885 -472 0
885 472 0
-886 -475 0
886 475 0
-887 -478 0
887 478 0
-888 -481 0
888 481 0
-889 -484 0
889 484 0
-890 -486 0
890 486 0
-891 -489 0
891 489 0
-892 -492 0
892 492 0
-893 -495 0
893 495 0
-894 -498 0
894 498 0
-895 -501 0
895 501 0
-896 -33 0
896 33 0
-897 -504 0
897 504 0
-898 -507 0
898 507 0
-899 -510 0
899 510 0
-900 -513 0
900 513 0
-901 -516 0
901 516 0
-902 -519 0
902 519 0
-903 -522 0
903 522 0
-904 -30 0
904 30 0
-905 -525 0
905 525 0
-906 -528 0
906 528 0
-907 -531 0
907 531 0
-908 -534 0
908 534 0
-909 -537 0
909 537 0
-910 -540 0
910 540 0
-911 -543 0
911 543 0
-912 -546 0
912 546 0
-913 -549 0
913 549 0
-914 -552 0
914 552 0
-915 -555 0
915 555 0
-916 -558 0
916 558 0
-917 -561 0
917 561 0
-918 -564 0
918 564 0
-919 -567 0
919 567 0
-920 -570 0
920 570 0
-921 -573 0
921 573 0
-922 -576 0
922 576 0
-923 -579 0
923 579 0
-924 -582 0
924 582 0
-925 -585 0
925 585 0
-926 -588 0
926 588 0
-927 -590 0
927 590 0
-928 -593 0
928 593 0
-929 -596 0
929 596 0
-930 -599 0
930 599 0
-931 -602 0
931 602 0
-932 -605 0
932 605 0
-933 -608 0
933 608 0
-934 -611 0
934 611 0
-935 -614 0
935 614 0
-936 -617 0
936 617 0
-937 -620 0
937 620 0
-938 -622 0
938 622 0
-939 -625 0
939 625 0
-940 -628 0
940 628 0
-941 -630 0
941 630 0
-942 -633 0
942 633 0
-943 -636 0
943 636 0
-944 -639 0
944 639 0
-945 -642 0
945 642 0
-946 -645 0
946 645 0
-947 -647 0
947 647 0
-948 -650 0
948 650 0
-949 -653 0
949 653 0
-950 -656 0
950 656 0
-951 -659 0
951 659 0
-952 -662 0
952 662 0
-953 -665 0
953 665 0
-954 -668 0
954 668 0
-955 -671 0
955 671 0
-956 -674 0
956 674 0
-957 -677 0
957 677 0
-958 -680 0
958 680 0
-959 -683 0
959 683 0
-960 -686 0
960 686 0
-961 -689 0
961 689 0
-962 -692 0
962 692 0
-963 -695 0
963 695 0
696 0
